26653.0
25 26 27 29 28 3 1 0 145 139 120 132 131 130 129 128 166 155 115 156 114 135 136 137 138 141 140 134 142 143 144 172 173 53 54 56 62 21 74 73 72 91 110 149 148 119 133 121 117 87 59 58 60 65 67 69 68 94 108 126 127 83 82 43 42 89 90 20 19 17 18 55 57 106 92 93 107 10 9 8 122 123 124 125 77 159 170 169 112 147 146 84 47 46 97 80 37 78 12 11 13 14 85 99 98 111 171 167 95 45 44 40 39 70 71 105 104 36 34 32 33 35 38 41 81 96 79 113 158 168 161 157 100 101 86 51 52 64 23 24 22 2 7 6 5 4 153 152 151 88 103 102 30 118 31 66 63 15 16 50 49 48 61 75 76 109 164 116 165 160 154 163 162 174 150 